Gurobi Optimizer version 9.1.2 build v9.1.2rc0 (linux64)
Thread count: 36 physical cores, 72 logical processors, using up to 32 threads
Optimize a model with 12 rows, 57 columns and 590 nonzeros
Model fingerprint: 0xf32eec78
Model has 47 quadratic constraints
Coefficient statistics:
  Matrix range     [2e-05, 3e+00]
  QMatrix range    [1e+00, 1e+00]
  QLMatrix range   [1e+00, 1e+00]
  Objective range  [8e-03, 7e-01]
  Bounds range     [1e+00, 1e+00]
  RHS range        [1e+00, 1e+00]
Presolve removed 9 rows and 0 columns

Continuous model is non-convex -- solving as a MIP.

Presolve removed 9 rows and 0 columns
Presolve time: 0.00s
Presolved: 189 rows, 57 columns, 443 nonzeros
Presolved model has 47 bilinear constraint(s)
Variable types: 57 continuous, 0 integer (0 binary)

Root relaxation: objective -1.743721e+00, 44 iterations, 0.00 seconds

    Nodes    |    Current Node    |     Objective Bounds      |     Work
 Expl Unexpl |  Obj  Depth IntInf | Incumbent    BestBd   Gap | It/Node Time

     0     0   -1.74372    0   38          -   -1.74372      -     -    0s
H    0     0                       0.6147548   -1.74372   384%     -    0s
     0     0   -1.64739    0    1    0.61475   -1.64739   368%     -    0s
H    0     0                      -1.6450460   -1.64739  0.14%     -    0s
     0     0     cutoff    0        -1.64505   -1.64505  0.00%     -    0s

Cutting planes:
  RLT: 25
  BQP: 3

Explored 1 nodes (76 simplex iterations) in 0.01 seconds
Thread count was 32 (of 72 available processors)

Solution count 2: -1.64505 0.614755 
No other solutions better than -1.64505

Optimal solution found (tolerance 1.00e-04)
Best objective -1.645045978473e+00, best bound -1.645045978473e+00, gap 0.0000%

User-callback calls 78, time in user-callback 0.00 sec
Gurobi Optimizer version 9.1.2 build v9.1.2rc0 (linux64)
Thread count: 36 physical cores, 72 logical processors, using up to 32 threads
Optimize a model with 24 rows, 120 columns and 2480 nonzeros
Model fingerprint: 0xd309b715
Model has 100 quadratic constraints
Coefficient statistics:
  Matrix range     [8e-06, 4e+00]
  QMatrix range    [1e+00, 1e+00]
  QLMatrix range   [1e+00, 1e+00]
  Objective range  [7e-03, 1e+00]
  Bounds range     [1e+00, 1e+00]
  RHS range        [1e+00, 1e+00]
Presolve removed 17 rows and 0 columns

Continuous model is non-convex -- solving as a MIP.

Presolve removed 17 rows and 0 columns
Presolve time: 0.00s
Presolved: 407 rows, 120 columns, 1232 nonzeros
Presolved model has 100 bilinear constraint(s)
Variable types: 120 continuous, 0 integer (0 binary)

Root relaxation: objective -1.006027e+01, 134 iterations, 0.00 seconds

    Nodes    |    Current Node    |     Objective Bounds      |     Work
 Expl Unexpl |  Obj  Depth IntInf | Incumbent    BestBd   Gap | It/Node Time

     0     0  -10.06027    0  100          -  -10.06027      -     -    0s
H    0     0                       1.3138322  -10.06027   866%     -    0s
     0     0   -7.16546    0  100    1.31383   -7.16546   645%     -    0s
H    0     0                       0.7193949   -7.16546  1096%     -    0s
     0     0   -7.16156    0  100    0.71939   -7.16156  1095%     -    0s
     0     0   -6.22723    0   90    0.71939   -6.22723   966%     -    0s
H    0     0                      -0.4527842   -6.22723  1275%     -    0s
     0     0   -6.18353    0   81   -0.45278   -6.18353  1266%     -    0s
     0     0   -5.96125    0   90   -0.45278   -5.96125  1217%     -    0s
     0     0   -5.91232    0   90   -0.45278   -5.91232  1206%     -    0s
     0     0   -5.87800    0   90   -0.45278   -5.87800  1198%     -    0s
H    0     0                      -0.4639766   -5.87800  1167%     -    0s
     0     0   -5.85636    0   90   -0.46398   -5.85636  1162%     -    0s
     0     0   -5.81155    0   90   -0.46398   -5.81155  1153%     -    0s
H    0     0                      -0.4940507   -5.81155  1076%     -    0s
     0     0   -5.80673    0   90   -0.49405   -5.80673  1075%     -    0s
     0     0   -5.79198    0   90   -0.49405   -5.79198  1072%     -    0s
H    0     0                      -0.6412366   -5.79198   803%     -    0s
     0     0   -5.79128    0   90   -0.64124   -5.79128   803%     -    0s
     0     0   -5.78887    0   90   -0.64124   -5.78887   803%     -    0s
     0     0   -5.78407    0   90   -0.64124   -5.78407   802%     -    0s
     0     0   -5.78306    0   90   -0.64124   -5.78306   802%     -    0s
H    0     0                      -1.8637711   -5.78306   210%     -    0s
H    0     0                      -1.8951633   -5.78306   205%     -    0s
H    0     0                      -1.9256932   -5.78306   200%     -    0s
     0     2   -5.78306    0   90   -1.92569   -5.78306   200%     -    0s
*  976  1048              21      -4.5587344   -5.07175  11.3%  26.3    0s
* 1090   996              20      -4.7792011   -4.93650  3.29%  25.2    0s

Cutting planes:
  RLT: 82
  BQP: 12
  PSD: 21

Explored 1535 nodes (30495 simplex iterations) in 0.51 seconds
Thread count was 32 (of 72 available processors)

Solution count 10: -4.7792 -4.55873 -1.92569 ... 0.719395
No other solutions better than -4.7792

Optimal solution found (tolerance 1.00e-04)
Best objective -4.779201097625e+00, best bound -4.779201097625e+00, gap 0.0000%

User-callback calls 3354, time in user-callback 0.00 sec



objective value: -4.779201097624799
objective bound: -4.779201097624799
x_opt: [0.0, 1.0, 1.0, 1.0, 1.0, 0.0, 0.0, 0.0, 0.2794978742128172, 1.0, 0.0, 0.22515607155294054, 1.0, 1.0, 1.0, 0.0, 0.0, 0.0, 0.05310076721327932, 0.49492078806578044]
GUROBI solution time: 0.5116782188415527




